639,672
918,443
366,177
998,-30
468,298
681,766
469,194
880,342
635,548
1194,240
963,794
261,406
436,-75
504,378
607,178
927,67
611,309
732,81
282,277
681,46
912,860
1066,467
694,380
368,305
382,-6
448,173
441,406
1101,406
616,820
1155,331
732,731
1066,345
611,309
850,237
441,528
681,556
441,528
